
  12    4
  10   10   10   10

   0   0   0   0   0   2 2 3 
   2  10  10  10  10   2 7 4 
  10  10  10  10  10   2 6 5 
   9  10  10  10  10   2 8 5 
  10  10  10  10  10   1 9 
   2  10  10  10  10   1 8 
   2  10  10  10  10   1 8 
   5  10  10  10  10   2 11 10 
   7  10  10  10  10   2 11 10 
   7  10  10  10  10   1 12
   5  10  10  10  10   1 12
   0   0   0   0   0   0 
